NAME : traveling-santa-2018-prime-paths.30219.tour
COMMENT : Length = 30219
COMMENT : Found by LKH [Keld Helsgaun] Sun Jun 12 20:00:20 2022
TYPE : TOUR
DIMENSION : 100
TOUR_SECTION
1
7
96
76
59
87
27
75
70
99
3
24
49
71
16
67
21
86
48
80
69
43
36
93
47
17
34
66
25
73
60
35
57
55
31
50
54
61
52
68
30
78
4
42
46
77
19
81
28
37
64
14
95
56
83
33
11
38
18
89
9
10
6
63
53
98
29
45
15
90
23
26
91
94
58
85
39
2
32
74
13
65
62
82
84
20
40
92
97
51
5
88
79
41
22
44
12
72
8
100
-1
EOF
